solution status: optimal solution found
objective value:                     177640.710000003
d11(0,0)                                            1 	(obj:0)
d11(1,1)                                            1 	(obj:0)
d11(1,2)                                            1 	(obj:0)
d11(2,4)                                            1 	(obj:0)
d11(2,5)                                            1 	(obj:0)
d11(2,6)                                            1 	(obj:0)
d11(2,7)                                            1 	(obj:0)
d11(2,8)                                            1 	(obj:0)
d11(2,10)                                           1 	(obj:0)
d11(2,11)                                           1 	(obj:0)
d11(3,13)                                           1 	(obj:0)
d11(3,14)                                           1 	(obj:0)
d11(3,15)                                           1 	(obj:0)
d11(3,16)                                           1 	(obj:0)
d11(3,17)                                           1 	(obj:0)
d11(3,18)                                           1 	(obj:0)
d11(3,19)                                           1 	(obj:0)
d11(3,20)                                           1 	(obj:0)
d11(3,21)                                           1 	(obj:0)
d11(3,22)                                           1 	(obj:0)
d11(3,23)                                           1 	(obj:0)
d11(3,24)                                           1 	(obj:0)
d11(3,25)                                           1 	(obj:0)
d11(3,26)                                           1 	(obj:0)
d11(3,27)                                           1 	(obj:0)
d11(3,28)                                           1 	(obj:0)
d11(3,29)                                           1 	(obj:0)
d11(3,31)                                           1 	(obj:0)
d11(3,32)                                           1 	(obj:0)
d11(3,33)                                           1 	(obj:0)
d11(3,34)                                           1 	(obj:0)
d11(3,35)                                           1 	(obj:0)
d11(3,36)                                           1 	(obj:0)
d11(3,37)                                           1 	(obj:0)
d11(3,38)                                           1 	(obj:0)
d11(3,39)                                           1 	(obj:0)
d11(4,40)                                           1 	(obj:0)
d11(4,41)                                           1 	(obj:0)
d11(4,42)                           0.999999999999998 	(obj:0)
d11(4,43)                                           1 	(obj:0)
d11(4,44)                                           1 	(obj:0)
d11(4,45)                                           1 	(obj:0)
d11(4,46)                                           1 	(obj:0)
d11(4,47)                                           1 	(obj:0)
d11(4,48)                           0.999999999999998 	(obj:0)
d11(4,49)                                           1 	(obj:0)
d11(4,50)                                           1 	(obj:0)
d11(4,51)                                           1 	(obj:0)
d11(4,52)                                           1 	(obj:0)
d11(4,53)                                           1 	(obj:0)
d11(4,54)                           0.999999999999998 	(obj:0)
d11(4,55)                                           1 	(obj:0)
d11(4,56)                                           1 	(obj:0)
d11(4,57)                                           1 	(obj:0)
d11(4,58)                                           1 	(obj:0)
d11(4,59)                                           1 	(obj:0)
d11(4,60)                                           1 	(obj:0)
d11(4,61)                                           1 	(obj:0)
d11(4,62)                                           1 	(obj:0)
d11(4,63)                                           1 	(obj:0)
d11(4,64)                                           1 	(obj:0)
d11(4,65)                                           1 	(obj:0)
d11(4,66)                           0.999999999999998 	(obj:0)
d11(4,67)                                           1 	(obj:0)
d11(4,68)                                           1 	(obj:0)
d11(4,69)                           0.999999999999998 	(obj:0)
d11(4,70)                                           1 	(obj:0)
d11(4,71)                                           1 	(obj:0)
d11(4,72)                                           1 	(obj:0)
d11(4,73)                                           1 	(obj:0)
d11(4,74)                                           1 	(obj:0)
d11(4,75)                           0.999999999999998 	(obj:0)
d11(4,76)                                           1 	(obj:0)
d11(4,77)                                           1 	(obj:0)
d11(4,78)                           0.999999999999998 	(obj:0)
d11(4,79)                                           1 	(obj:0)
d11(4,80)                                           1 	(obj:0)
d11(4,81)                           0.999999999999998 	(obj:0)
d11(4,82)                                           1 	(obj:0)
d11(4,83)                                           1 	(obj:0)
d11(4,84)                           0.999999999999998 	(obj:0)
d11(4,85)                                           1 	(obj:0)
d11(4,86)                                           1 	(obj:0)
d11(4,87)                                           1 	(obj:0)
d11(4,88)                                           1 	(obj:0)
d11(4,89)                                           1 	(obj:0)
d11(4,90)                           0.999999999999998 	(obj:0)
d11(4,91)                                           1 	(obj:0)
d11(4,92)                                           1 	(obj:0)
d11(4,94)                                           1 	(obj:0)
d11(4,95)                                           1 	(obj:0)
d11(4,96)                                           1 	(obj:0)
d11(4,97)                                           1 	(obj:0)
d11(4,98)                                           1 	(obj:0)
d11(4,99)                           0.999999999999998 	(obj:0)
d11(4,100)                                          1 	(obj:0)
d11(4,101)                                          1 	(obj:0)
d11(4,102)                          0.999999999999998 	(obj:0)
d11(4,103)                                          1 	(obj:0)
d11(4,104)                                          1 	(obj:0)
d11(4,105)                                          1 	(obj:0)
d11(4,106)                                          1 	(obj:0)
d11(4,107)                                          1 	(obj:0)
d11(4,108)                          0.999999999999998 	(obj:0)
d11(4,109)                                          1 	(obj:0)
d11(4,110)                                          1 	(obj:0)
d11(4,111)                          0.999999999999998 	(obj:0)
d11(4,112)                                          1 	(obj:0)
d11(4,113)                                          1 	(obj:0)
d11(4,114)                          0.999999999999998 	(obj:0)
d11(4,115)                                          1 	(obj:0)
d11(4,116)                                          1 	(obj:0)
d11(4,117)                          0.999999999999998 	(obj:0)
d11(4,118)                                          1 	(obj:0)
d11(4,119)                                          1 	(obj:0)
d11(4,120)                          0.999999999999998 	(obj:0)
d12(1,3)                                            1 	(obj:0)
d21(3,13)                                           1 	(obj:0)
d21(4,40)                                           1 	(obj:0)
d21(4,41)                                           1 	(obj:0)
d21(4,42)                                           1 	(obj:0)
d21(4,43)                                           1 	(obj:0)
d21(4,44)                                           1 	(obj:0)
d21(4,45)                                           1 	(obj:0)
d21(4,46)                                           1 	(obj:0)
d21(4,47)                                           1 	(obj:0)
d21(4,49)                                           1 	(obj:0)
d21(4,50)                                           1 	(obj:0)
d21(4,51)                                           1 	(obj:0)
d21(4,52)                                           1 	(obj:0)
d21(4,53)                                           1 	(obj:0)
d21(4,55)                                           1 	(obj:0)
d21(4,58)                                           1 	(obj:0)
d21(4,59)                                           1 	(obj:0)
d21(4,61)                                           1 	(obj:0)
d21(4,67)                                           1 	(obj:0)
d21(4,68)                                           1 	(obj:0)
d21(4,69)                                           1 	(obj:0)
d21(4,70)                                           1 	(obj:0)
d21(4,71)                                           1 	(obj:0)
d21(4,73)                                           1 	(obj:0)
d21(4,76)                                           1 	(obj:0)
d21(4,77)                                           1 	(obj:0)
d21(4,79)                                           1 	(obj:0)
d21(4,80)                                           1 	(obj:0)
d21(4,82)                                           1 	(obj:0)
d21(4,85)                                           1 	(obj:0)
d21(4,94)                                           1 	(obj:0)
d21(4,95)                                           1 	(obj:0)
d21(4,97)                                           1 	(obj:0)
d21(4,98)                                           1 	(obj:0)
d21(4,103)                                          1 	(obj:0)
d21(4,104)                                          1 	(obj:0)
d21(4,106)                                          1 	(obj:0)
STE(1,1)                              12514.904406669 	(obj:0)
STE(0,0)                                        15750 	(obj:0)
STE(1,2)                             13511.6704100023 	(obj:0)
STE(1,3)                             14531.9498283021 	(obj:0)
STE(2,4)                             9040.68620000236 	(obj:0)
STE(2,5)                             10037.4522033357 	(obj:0)
STE(2,6)                              11254.904406669 	(obj:0)
STE(2,7)                             10037.4522033357 	(obj:0)
STE(2,8)                              11034.218206669 	(obj:0)
STE(2,9)                             12251.6704100023 	(obj:0)
STE(2,10)                            11057.7316216355 	(obj:0)
STE(2,11)                            12054.4976249688 	(obj:0)
STE(2,12)                            13271.9498283021 	(obj:0)
STE(3,13)                             5566.4679933357 	(obj:0)
STE(3,14)                              6563.233996669 	(obj:0)
STE(3,15)                            7780.68620000236 	(obj:0)
STE(3,16)                              6563.233996669 	(obj:0)
STE(3,17)                            7560.00000000229 	(obj:0)
STE(3,18)                            8777.45220333566 	(obj:0)
STE(3,19)                            7780.68620000237 	(obj:0)
STE(3,20)                            8777.45220333566 	(obj:0)
STE(3,21)                            9994.90440666897 	(obj:0)
STE(3,22)                            6563.23399666903 	(obj:0)
STE(3,23)                            7560.00000000232 	(obj:0)
STE(3,24)                            8777.45220333569 	(obj:0)
STE(3,25)                            7560.00000000232 	(obj:0)
STE(3,26)                            8556.76600333561 	(obj:0)
STE(3,27)                            9774.21820666899 	(obj:0)
STE(3,28)                            8777.45220333565 	(obj:0)
STE(3,29)                             9774.2182066689 	(obj:0)
STE(3,30)                            10991.6704100023 	(obj:0)
STE(3,31)                            7583.51341496882 	(obj:0)
STE(3,32)                            8580.27941830211 	(obj:0)
STE(3,33)                            9797.73162163548 	(obj:0)
STE(3,34)                            8580.27941830211 	(obj:0)
STE(3,35)                             9577.0454216354 	(obj:0)
STE(3,36)                            10794.4976249688 	(obj:0)
STE(3,37)                            9797.73162163544 	(obj:0)
STE(3,38)                            10794.4976249687 	(obj:0)
STE(3,39)                            12011.9498283022 	(obj:0)
STE(4,40)                            2092.24978666672 	(obj:0)
STE(4,41)                            3089.01579000001 	(obj:0)
STE(4,42)                             4306.4679933357 	(obj:0)
STE(4,43)                            3089.01579000001 	(obj:0)
STE(4,44)                            4085.78179333329 	(obj:0)
STE(4,45)                            5303.23399666668 	(obj:0)
STE(4,46)                            4306.46799333338 	(obj:0)
STE(4,47)                            5303.23399666667 	(obj:0)
STE(4,48)                            6520.68620000236 	(obj:0)
STE(4,49)                            3089.01579000001 	(obj:0)
STE(4,50)                             4085.7817933333 	(obj:0)
STE(4,51)                            5303.23399666662 	(obj:0)
STE(4,52)                             4085.7817933333 	(obj:0)
STE(4,53)                            5082.54779666659 	(obj:0)
STE(4,54)                            6300.00000000229 	(obj:0)
STE(4,55)                            5303.23399666667 	(obj:0)
STE(4,56)                            6299.99999999996 	(obj:0)
STE(4,57)                            7517.45220333334 	(obj:0)
STE(4,58)                            4306.46799333339 	(obj:0)
STE(4,59)                            5303.23399666668 	(obj:0)
STE(4,60)                             6520.6862000001 	(obj:0)
STE(4,61)                            5303.23399666668 	(obj:0)
STE(4,62)                                        6300 	(obj:0)
STE(4,63)                            7517.45220333333 	(obj:0)
STE(4,64)                            6520.68619999999 	(obj:0)
STE(4,65)                            7517.45220333328 	(obj:0)
STE(4,66)                            8734.90440666897 	(obj:0)
STE(4,67)                            3089.01579000004 	(obj:0)
STE(4,68)                            4085.78179333333 	(obj:0)
STE(4,69)                            5303.23399666903 	(obj:0)
STE(4,70)                            4085.78179333333 	(obj:0)
STE(4,71)                            5082.54779666662 	(obj:0)
STE(4,72)                                        6300 	(obj:0)
STE(4,73)                             5303.2339966667 	(obj:0)
STE(4,74)                            6299.99999999999 	(obj:0)
STE(4,75)                            7517.45220333569 	(obj:0)
STE(4,76)                            4085.78179333333 	(obj:0)
STE(4,77)                            5082.54779666662 	(obj:0)
STE(4,78)                            6300.00000000232 	(obj:0)
STE(4,79)                            5082.54779666662 	(obj:0)
STE(4,80)                            6079.31379999991 	(obj:0)
STE(4,81)                            7296.76600333561 	(obj:0)
STE(4,82)                                        6300 	(obj:0)
STE(4,83)                            7296.76600333329 	(obj:0)
STE(4,84)                            8514.21820666899 	(obj:0)
STE(4,85)                            5303.23399666667 	(obj:0)
STE(4,86)                            6299.99999999996 	(obj:0)
STE(4,87)                            7517.45220333332 	(obj:0)
STE(4,88)                            6299.99999999992 	(obj:0)
STE(4,89)                            7296.76600333321 	(obj:0)
STE(4,90)                             8514.2182066689 	(obj:0)
STE(4,91)                            7517.45220333333 	(obj:0)
STE(4,92)                            8514.21820666662 	(obj:0)
STE(4,93)                            9731.67041000231 	(obj:0)
STE(4,94)                            4109.29520829983 	(obj:0)
STE(4,95)                            5106.06121163312 	(obj:0)
STE(4,96)                            6323.51341496654 	(obj:0)
STE(4,97)                            5106.06121163312 	(obj:0)
STE(4,98)                            6102.82721496641 	(obj:0)
STE(4,99)                            7320.27941830211 	(obj:0)
STE(4,100)                           6323.51341496649 	(obj:0)
STE(4,101)                           7320.27941829978 	(obj:0)
STE(4,102)                           8537.73162163548 	(obj:0)
STE(4,103)                           5106.06121163312 	(obj:0)
STE(4,104)                           6102.82721496641 	(obj:0)
STE(4,105)                           7320.27941829977 	(obj:0)
STE(4,106)                           6102.82721496641 	(obj:0)
STE(4,107)                            7099.5932182997 	(obj:0)
STE(4,108)                            8317.0454216354 	(obj:0)
STE(4,109)                           7320.27941829979 	(obj:0)
STE(4,110)                           8317.04542163308 	(obj:0)
STE(4,111)                           9534.49762496877 	(obj:0)
STE(4,112)                           6323.51341496645 	(obj:0)
STE(4,113)                           7320.27941829974 	(obj:0)
STE(4,114)                           8537.73162163544 	(obj:0)
STE(4,115)                           7320.27941829974 	(obj:0)
STE(4,116)                           8317.04542163303 	(obj:0)
STE(4,117)                           9534.49762496873 	(obj:0)
STE(4,118)                           8537.73162163317 	(obj:0)
STE(4,119)                           9534.49762496647 	(obj:0)
STE(4,120)                           10751.9498283022 	(obj:0)
y1(4,100)                            1992.79638600209 	(obj:0)
y1(4,101)                            1095.70698300213 	(obj:0)
y1(4,103)                            1992.79638600209 	(obj:0)
y1(4,104)                            1095.70698300213 	(obj:0)
y1(4,105)                        2.10011438369006e-009 	(obj:0)
y1(4,106)                            1992.79638600209 	(obj:0)
y1(4,107)                            1095.70698300213 	(obj:0)
y1(4,109)                            1992.79638600209 	(obj:0)
y1(4,110)                            1095.70698300213 	(obj:0)
y1(4,112)                            1992.79638600209 	(obj:0)
y1(4,113)                            1095.70698300213 	(obj:0)
y1(4,115)                            1992.79638600209 	(obj:0)
y1(4,116)                            1095.70698300213 	(obj:0)
y1(4,118)                            1992.79638600209 	(obj:0)
y1(4,119)                            1095.70698300213 	(obj:0)
AVE(3)                                3399.3204933139 	(obj:0)
AVE(4)                               3353.21046544222 	(obj:0)
WG(2)                                3326.45170866643 	(obj:10)
WG(3)                                 3399.3204933139 	(obj:10)
WG(4)                                3353.21046544222 	(obj:10)
BG(1)                                4276.31594999782 	(obj:10)
BG(2)                                1169.46664133357 	(obj:10)
BG(3)                                1096.59785668608 	(obj:10)
BG(4)                                1142.70788455994 	(obj:10)
WB(1)                                3134.60043707458 	(obj:0)
AVE(1)                               3134.60043707458 	(obj:0)
AVE(2)                               3326.45170866643 	(obj:0)
y1(1,1)                              1777.58603399791 	(obj:0)
y1(1,2)                              880.496630997919 	(obj:0)
y1(2,4)                              1992.79638599996 	(obj:0)
y1(2,5)                                   1095.706983 	(obj:0)
y1(2,7)                              1992.79638599996 	(obj:0)
y1(2,8)                                   1095.706983 	(obj:0)
y1(2,10)                             1992.79638599996 	(obj:0)
y1(2,11)                                  1095.706983 	(obj:0)
y1(3,13)                                  1992.796386 	(obj:0)
y1(3,14)                             1095.70698300003 	(obj:0)
y1(3,16)                                  1992.796386 	(obj:0)
y1(3,17)                             1095.70698300003 	(obj:0)
y1(3,19)                                  1992.796386 	(obj:0)
y1(3,20)                             1095.70698300003 	(obj:0)
y1(3,22)                                  1992.796386 	(obj:0)
y1(3,23)                             1095.70698300003 	(obj:0)
y1(3,25)                                  1992.796386 	(obj:0)
y1(3,26)                             1095.70698300003 	(obj:0)
y1(3,28)                                  1992.796386 	(obj:0)
y1(3,29)                             1095.70698300007 	(obj:0)
y1(3,31)                                  1992.796386 	(obj:0)
y1(3,32)                             1095.70698300003 	(obj:0)
y1(3,34)                                  1992.796386 	(obj:0)
y1(3,35)                             1095.70698300003 	(obj:0)
y1(3,37)                                  1992.796386 	(obj:0)
y1(3,38)                             1095.70698300003 	(obj:0)
y1(4,40)                             1992.79638600209 	(obj:0)
y1(4,41)                             1095.70698300213 	(obj:0)
y1(4,43)                             1992.79638600209 	(obj:0)
y1(4,44)                             1095.70698300213 	(obj:0)
y1(4,45)                         2.08615347219165e-009 	(obj:0)
y1(4,46)                             1992.79638600209 	(obj:0)
y1(4,47)                             1095.70698300213 	(obj:0)
y1(4,49)                             1992.79638600209 	(obj:0)
y1(4,50)                             1095.70698300213 	(obj:0)
y1(4,51)                         2.14213753691167e-009 	(obj:0)
y1(4,52)                             1992.79638600209 	(obj:0)
y1(4,53)                             1095.70698300213 	(obj:0)
y1(4,55)                             1992.79638600209 	(obj:0)
y1(4,56)                             1095.70698300213 	(obj:0)
y1(4,57)                         2.08615347219165e-009 	(obj:0)
y1(4,58)                             1992.79638600209 	(obj:0)
y1(4,59)                             1095.70698300213 	(obj:0)
y1(4,60)                         2.04393631125416e-009 	(obj:0)
y1(4,61)                             1992.79638600209 	(obj:0)
y1(4,62)                              1095.7069830021 	(obj:0)
y1(4,63)                         2.10011438369006e-009 	(obj:0)
y1(4,64)                             1992.79638600209 	(obj:0)
y1(4,65)                             1095.70698300213 	(obj:0)
y1(4,67)                             1992.79638600209 	(obj:0)
y1(4,68)                             1095.70698300213 	(obj:0)
y1(4,70)                             1992.79638600209 	(obj:0)
y1(4,71)                             1095.70698300213 	(obj:0)
y1(4,72)                         2.08616256713867e-009 	(obj:0)
y1(4,73)                             1992.79638600209 	(obj:0)
y1(4,74)                             1095.70698300213 	(obj:0)
y1(4,76)                             1992.79638600209 	(obj:0)
y1(4,77)                             1095.70698300213 	(obj:0)
y1(4,79)                             1992.79638600209 	(obj:0)
y1(4,80)                             1095.70698300213 	(obj:0)
y1(4,82)                             1992.79638600209 	(obj:0)
y1(4,83)                             1095.70698300213 	(obj:0)
y1(4,85)                             1992.79638600209 	(obj:0)
y1(4,86)                             1095.70698300213 	(obj:0)
y1(4,87)                         2.10011438369006e-009 	(obj:0)
y1(4,88)                             1992.79638600209 	(obj:0)
y1(4,89)                             1095.70698300213 	(obj:0)
y1(4,91)                             1992.79638600209 	(obj:0)
y1(4,92)                             1095.70698300213 	(obj:0)
y1(4,94)                             1992.79638600209 	(obj:0)
y1(4,95)                             1095.70698300213 	(obj:0)
y1(4,96)                         2.04393631125416e-009 	(obj:0)
y1(4,97)                             1992.79638600209 	(obj:0)
y1(4,98)                             1095.70698300213 	(obj:0)
y2(1,3)                              44.1577140022083 	(obj:0)
